p edge 150 4470
e 1 4
e 1 6
e 1 10
e 1 11
e 1 15
e 1 18
e 1 21
e 1 22
e 1 24
e 1 25
e 1 28
e 1 32
e 1 34
e 1 37
e 1 38
e 1 40
e 1 41
e 1 42
e 1 43
e 1 45
e 1 48
e 1 53
e 1 54
e 1 59
e 1 60
e 1 61
e 1 62
e 1 63
e 1 64
e 1 66
e 1 71
e 1 72
e 1 73
e 1 76
e 1 77
e 1 78
e 1 81
e 1 84
e 1 87
e 1 88
e 1 95
e 1 97
e 1 98
e 1 99
e 1 102
e 1 105
e 1 106
e 1 108
e 1 110
e 1 111
e 1 112
e 1 113
e 1 116
e 1 117
e 1 120
e 1 122
e 1 125
e 1 129
e 1 132
e 1 134
e 1 138
e 1 139
e 1 142
e 1 144
e 1 149
e 1 150
e 2 3
e 2 5
e 2 7
e 2 8
e 2 9
e 2 10
e 2 11
e 2 13
e 2 14
e 2 17
e 2 18
e 2 20
e 2 22
e 2 24
e 2 25
e 2 26
e 2 27
e 2 28
e 2 29
e 2 38
e 2 39
e 2 40
e 2 43
e 2 44
e 2 45
e 2 47
e 2 50
e 2 51
e 2 52
e 2 53
e 2 54
e 2 55
e 2 59
e 2 60
e 2 66
e 2 68
e 2 73
e 2 75
e 2 78
e 2 81
e 2 82
e 2 85
e 2 87
e 2 92
e 2 93
e 2 94
e 2 95
e 2 97
e 2 100
e 2 103
e 2 104
e 2 106
e 2 107
e 2 111
e 2 114
e 2 117
e 2 118
e 2 124
e 2 125
e 2 126
e 2 127
e 2 128
e 2 129
e 2 131
e 2 139
e 2 140
e 2 149
e 3 5
e 3 6
e 3 7
e 3 10
e 3 12
e 3 13
e 3 15
e 3 17
e 3 21
e 3 23
e 3 25
e 3 26
e 3 28
e 3 30
e 3 31
e 3 34
e 3 38
e 3 39
e 3 43
e 3 45
e 3 47
e 3 49
e 3 51
e 3 54
e 3 55
e 3 56
e 3 60
e 3 61
e 3 67
e 3 69
e 3 70
e 3 76
e 3 77
e 3 79
e 3 83
e 3 84
e 3 93
e 3 94
e 3 96
e 3 99
e 3 102
e 3 106
e 3 113
e 3 115
e 3 116
e 3 120
e 3 121
e 3 122
e 3 126
e 3 127
e 3 128
e 3 131
e 3 132
e 3 134
e 3 136
e 3 137
e 3 138
e 3 141
e 3 146
e 3 147
e 3 149
e 3 150
e 4 7
e 4 15
e 4 16
e 4 22
e 4 31
e 4 32
e 4 34
e 4 35
e 4 36
e 4 37
e 4 40
e 4 42
e 4 43
e 4 44
e 4 49
e 4 51
e 4 55
e 4 59
e 4 60
e 4 62
e 4 64
e 4 68
e 4 70
e 4 72
e 4 73
e 4 76
e 4 82
e 4 83
e 4 85
e 4 92
e 4 94
e 4 96
e 4 97
e 4 100
e 4 104
e 4 109
e 4 110
e 4 112
e 4 114
e 4 115
e 4 116
e 4 118
e 4 119
e 4 120
e 4 123
e 4 125
e 4 129
e 4 131
e 4 133
e 4 135
e 4 136
e 4 137
e 4 139
e 4 140
e 4 143
e 4 144
e 4 146
e 4 148
e 4 150
e 5 7
e 5 10
e 5 11
e 5 12
e 5 15
e 5 18
e 5 20
e 5 25
e 5 27
e 5 33
e 5 34
e 5 39
e 5 41
e 5 42
e 5 44
e 5 46
e 5 49
e 5 50
e 5 58
e 5 59
e 5 60
e 5 63
e 5 65
e 5 66
e 5 68
e 5 69
e 5 70
e 5 71
e 5 73
e 5 78
e 5 80
e 5 81
e 5 82
e 5 85
e 5 90
e 5 91
e 5 95
e 5 99
e 5 100
e 5 104
e 5 106
e 5 107
e 5 109
e 5 116
e 5 117
e 5 119
e 5 120
e 5 121
e 5 122
e 5 123
e 5 127
e 5 129
e 5 130
e 5 132
e 5 134
e 5 136
e 5 143
e 5 144
e 5 145
e 5 146
e 5 147
e 5 150
e 6 7
e 6 8
e 6 12
e 6 18
e 6 19
e 6 20
e 6 24
e 6 33
e 6 41
e 6 42
e 6 50
e 6 51
e 6 58
e 6 60
e 6 64
e 6 67
e 6 75
e 6 81
e 6 83
e 6 84
e 6 86
e 6 88
e 6 92
e 6 93
e 6 96
e 6 100
e 6 104
e 6 108
e 6 111
e 6 118
e 6 124
e 6 125
e 6 126
e 6 129
e 6 130
e 6 133
e 6 134
e 6 137
e 6 138
e 6 139
e 6 141
e 6 145
e 6 148
e 6 149
e 6 150
e 7 8
e 7 9
e 7 10
e 7 11
e 7 14
e 7 28
e 7 33
e 7 36
e 7 37
e 7 38
e 7 39
e 7 41
e 7 49
e 7 50
e 7 52
e 7 53
e 7 54
e 7 56
e 7 60
e 7 62
e 7 63
e 7 64
e 7 67
e 7 69
e 7 70
e 7 72
e 7 73
e 7 75
e 7 76
e 7 78
e 7 79
e 7 87
e 7 88
e 7 92
e 7 97
e 7 100
e 7 106
e 7 110
e 7 113
e 7 115
e 7 116
e 7 117
e 7 118
e 7 122
e 7 123
e 7 124
e 7 133
e 7 134
e 7 137
e 7 138
e 7 140
e 7 141
e 7 146
e 7 148
e 7 149
e 7 150
e 8 16
e 8 17
e 8 22
e 8 23
e 8 28
e 8 29
e 8 37
e 8 38
e 8 40
e 8 41
e 8 43
e 8 45
e 8 46
e 8 48
e 8 49
e 8 54
e 8 57
e 8 58
e 8 59
e 8 61
e 8 62
e 8 63
e 8 64
e 8 75
e 8 77
e 8 78
e 8 79
e 8 80
e 8 82
e 8 83
e 8 85
e 8 86
e 8 92
e 8 95
e 8 97
e 8 100
e 8 101
e 8 103
e 8 105
e 8 107
e 8 109
e 8 111
e 8 112
e 8 113
e 8 114
e 8 116
e 8 117
e 8 118
e 8 120
e 8 121
e 8 123
e 8 126
e 8 130
e 8 132
e 8 134
e 8 135
e 8 137
e 8 141
e 8 143
e 8 146
e 8 148
e 9 16
e 9 19
e 9 23
e 9 27
e 9 30
e 9 31
e 9 33
e 9 38
e 9 39
e 9 42
e 9 43
e 9 44
e 9 47
e 9 49
e 9 51
e 9 52
e 9 55
e 9 56
e 9 57
e 9 58
e 9 59
e 9 61
e 9 65
e 9 66
e 9 67
e 9 71
e 9 72
e 9 75
e 9 78
e 9 80
e 9 81
e 9 82
e 9 85
e 9 86
e 9 89
e 9 90
e 9 93
e 9 96
e 9 99
e 9 101
e 9 103
e 9 106
e 9 107
e 9 116
e 9 117
e 9 118
e 9 119
e 9 126
e 9 128
e 9 129
e 9 130
e 9 131
e 9 132
e 9 134
e 9 136
e 9 137
e 9 138
e 9 139
e 9 140
e 9 146
e 9 147
e 9 150
e 10 11
e 10 15
e 10 16
e 10 18
e 10 19
e 10 20
e 10 21
e 10 29
e 10 30
e 10 31
e 10 32
e 10 33
e 10 34
e 10 35
e 10 45
e 10 47
e 10 50
e 10 51
e 10 52
e 10 57
e 10 69
e 10 71
e 10 72
e 10 73
e 10 78
e 10 79
e 10 82
e 10 84
e 10 91
e 10 92
e 10 96
e 10 97
e 10 99
e 10 100
e 10 101
e 10 102
e 10 104
e 10 109
e 10 113
e 10 114
e 10 115
e 10 118
e 10 119
e 10 121
e 10 123
e 10 124
e 10 125
e 10 130
e 10 133
e 10 135
e 10 136
e 10 139
e 10 142
e 10 143
e 10 145
e 10 148
e 10 150
e 11 15
e 11 16
e 11 18
e 11 19
e 11 20
e 11 21
e 11 22
e 11 23
e 11 25
e 11 30
e 11 34
e 11 36
e 11 37
e 11 38
e 11 39
e 11 40
e 11 43
e 11 44
e 11 45
e 11 46
e 11 57
e 11 58
e 11 59
e 11 64
e 11 66
e 11 71
e 11 72
e 11 73
e 11 77
e 11 80
e 11 87
e 11 91
e 11 94
e 11 97
e 11 98
e 11 105
e 11 112
e 11 113
e 11 115
e 11 118
e 11 119
e 11 121
e 11 127
e 11 128
e 11 133
e 11 139
e 11 146
e 11 149
e 12 14
e 12 17
e 12 26
e 12 27
e 12 32
e 12 34
e 12 38
e 12 45
e 12 46
e 12 47
e 12 49
e 12 54
e 12 58
e 12 59
e 12 62
e 12 63
e 12 66
e 12 68
e 12 71
e 12 72
e 12 73
e 12 74
e 12 75
e 12 77
e 12 79
e 12 80
e 12 82
e 12 83
e 12 86
e 12 89
e 12 90
e 12 98
e 12 99
e 12 100
e 12 101
e 12 102
e 12 106
e 12 108
e 12 111
e 12 125
e 12 129
e 12 131
e 12 136
e 12 139
e 12 143
e 12 144
e 12 145
e 12 146
e 12 147
e 12 148
e 12 149
e 13 15
e 13 17
e 13 18
e 13 19
e 13 20
e 13 22
e 13 23
e 13 25
e 13 26
e 13 30
e 13 32
e 13 34
e 13 35
e 13 38
e 13 39
e 13 40
e 13 43
e 13 44
e 13 47
e 13 48
e 13 51
e 13 53
e 13 54
e 13 55
e 13 56
e 13 59
e 13 61
e 13 62
e 13 63
e 13 65
e 13 66
e 13 69
e 13 70
e 13 77
e 13 80
e 13 81
e 13 87
e 13 92
e 13 94
e 13 104
e 13 105
e 13 108
e 13 111
e 13 113
e 13 114
e 13 115
e 13 116
e 13 120
e 13 121
e 13 127
e 13 130
e 13 132
e 13 133
e 13 137
e 13 138
e 13 139
e 13 141
e 14 16
e 14 19
e 14 20
e 14 21
e 14 22
e 14 26
e 14 28
e 14 29
e 14 32
e 14 36
e 14 39
e 14 40
e 14 42
e 14 45
e 14 46
e 14 51
e 14 56
e 14 59
e 14 60
e 14 64
e 14 69
e 14 71
e 14 73
e 14 76
e 14 79
e 14 81
e 14 83
e 14 84
e 14 86
e 14 87
e 14 88
e 14 90
e 14 91
e 14 93
e 14 95
e 14 96
e 14 97
e 14 99
e 14 100
e 14 102
e 14 105
e 14 108
e 14 113
e 14 114
e 14 118
e 14 120
e 14 127
e 14 130
e 14 132
e 14 134
e 14 139
e 14 140
e 14 141
e 14 142
e 14 145
e 14 149
e 14 150
e 15 24
e 15 25
e 15 26
e 15 29
e 15 34
e 15 35
e 15 40
e 15 43
e 15 44
e 15 45
e 15 47
e 15 49
e 15 53
e 15 57
e 15 59
e 15 64
e 15 65
e 15 66
e 15 68
e 15 70
e 15 71
e 15 75
e 15 78
e 15 79
e 15 81
e 15 85
e 15 87
e 15 88
e 15 89
e 15 90
e 15 91
e 15 93
e 15 96
e 15 97
e 15 100
e 15 105
e 15 108
e 15 109
e 15 110
e 15 111
e 15 113
e 15 115
e 15 116
e 15 118
e 15 120
e 15 123
e 15 126
e 15 134
e 15 136
e 15 137
e 15 138
e 15 141
e 15 142
e 15 143
e 15 146
e 15 148
e 15 149
e 16 20
e 16 21
e 16 23
e 16 25
e 16 27
e 16 31
e 16 35
e 16 38
e 16 39
e 16 40
e 16 42
e 16 44
e 16 46
e 16 47
e 16 50
e 16 52
e 16 56
e 16 58
e 16 64
e 16 66
e 16 68
e 16 70
e 16 72
e 16 75
e 16 76
e 16 78
e 16 82
e 16 84
e 16 85
e 16 86
e 16 87
e 16 90
e 16 94
e 16 96
e 16 99
e 16 100
e 16 103
e 16 107
e 16 108
e 16 111
e 16 114
e 16 115
e 16 117
e 16 121
e 16 123
e 16 125
e 16 127
e 16 130
e 16 131
e 16 132
e 16 133
e 16 135
e 16 136
e 16 141
e 16 144
e 16 146
e 17 19
e 17 20
e 17 21
e 17 24
e 17 25
e 17 26
e 17 27
e 17 28
e 17 29
e 17 30
e 17 32
e 17 35
e 17 36
e 17 37
e 17 38
e 17 41
e 17 43
e 17 46
e 17 52
e 17 53
e 17 57
e 17 59
e 17 63
e 17 65
e 17 67
e 17 68
e 17 69
e 17 70
e 17 74
e 17 79
e 17 80
e 17 81
e 17 84
e 17 86
e 17 87
e 17 89
e 17 90
e 17 91
e 17 96
e 17 102
e 17 108
e 17 109
e 17 110
e 17 111
e 17 114
e 17 116
e 17 117
e 17 119
e 17 121
e 17 126
e 17 127
e 17 129
e 17 134
e 17 135
e 17 136
e 17 137
e 17 141
e 17 143
e 17 144
e 17 149
e 18 19
e 18 22
e 18 24
e 18 31
e 18 33
e 18 36
e 18 39
e 18 40
e 18 41
e 18 44
e 18 45
e 18 49
e 18 51
e 18 60
e 18 62
e 18 63
e 18 67
e 18 69
e 18 71
e 18 72
e 18 73
e 18 75
e 18 76
e 18 78
e 18 79
e 18 82
e 18 83
e 18 88
e 18 89
e 18 90
e 18 95
e 18 105
e 18 106
e 18 107
e 18 111
e 18 118
e 18 121
e 18 125
e 18 126
e 18 127
e 18 134
e 18 139
e 18 147
e 18 149
e 19 20
e 19 21
e 19 27
e 19 28
e 19 29
e 19 31
e 19 32
e 19 34
e 19 38
e 19 43
e 19 44
e 19 45
e 19 46
e 19 50
e 19 56
e 19 63
e 19 69
e 19 72
e 19 77
e 19 83
e 19 84
e 19 85
e 19 86
e 19 87
e 19 89
e 19 90
e 19 92
e 19 93
e 19 94
e 19 98
e 19 104
e 19 108
e 19 114
e 19 118
e 19 119
e 19 121
e 19 122
e 19 123
e 19 125
e 19 129
e 19 133
e 19 134
e 19 141
e 19 143
e 19 145
e 19 146
e 19 147
e 19 148
e 19 149
e 19 150
e 20 23
e 20 27
e 20 29
e 20 33
e 20 34
e 20 40
e 20 44
e 20 46
e 20 54
e 20 56
e 20 62
e 20 63
e 20 65
e 20 69
e 20 72
e 20 74
e 20 76
e 20 79
e 20 80
e 20 89
e 20 90
e 20 92
e 20 94
e 20 96
e 20 97
e 20 99
e 20 103
e 20 105
e 20 107
e 20 108
e 20 110
e 20 111
e 20 113
e 20 118
e 20 120
e 20 121
e 20 123
e 20 124
e 20 125
e 20 128
e 20 133
e 20 135
e 20 136
e 20 140
e 20 142
e 20 144
e 20 145
e 20 146
e 20 147
e 21 24
e 21 25
e 21 26
e 21 27
e 21 35
e 21 37
e 21 41
e 21 42
e 21 45
e 21 47
e 21 49
e 21 50
e 21 51
e 21 53
e 21 60
e 21 63
e 21 65
e 21 70
e 21 75
e 21 76
e 21 77
e 21 79
e 21 81
e 21 82
e 21 83
e 21 86
e 21 89
e 21 91
e 21 92
e 21 93
e 21 95
e 21 98
e 21 103
e 21 106
e 21 109
e 21 113
e 21 115
e 21 116
e 21 117
e 21 118
e 21 122
e 21 124
e 21 125
e 21 129
e 21 131
e 21 134
e 21 137
e 21 141
e 21 150
e 22 30
e 22 32
e 22 35
e 22 37
e 22 38
e 22 41
e 22 42
e 22 43
e 22 46
e 22 50
e 22 51
e 22 52
e 22 56
e 22 60
e 22 63
e 22 68
e 22 74
e 22 75
e 22 76
e 22 78
e 22 79
e 22 83
e 22 87
e 22 89
e 22 90
e 22 91
e 22 94
e 22 97
e 22 98
e 22 100
e 22 103
e 22 110
e 22 116
e 22 120
e 22 121
e 22 128
e 22 130
e 22 131
e 22 133
e 22 136
e 22 137
e 22 138
e 22 142
e 22 143
e 22 146
e 22 148
e 23 25
e 23 33
e 23 35
e 23 38
e 23 41
e 23 43
e 23 46
e 23 50
e 23 52
e 23 53
e 23 56
e 23 57
e 23 59
e 23 60
e 23 61
e 23 62
e 23 65
e 23 70
e 23 74
e 23 79
e 23 83
e 23 86
e 23 88
e 23 92
e 23 94
e 23 96
e 23 106
e 23 110
e 23 112
e 23 114
e 23 121
e 23 122
e 23 123
e 23 125
e 23 127
e 23 129
e 23 132
e 23 135
e 23 143
e 23 144
e 23 147
e 24 25
e 24 30
e 24 31
e 24 40
e 24 41
e 24 43
e 24 45
e 24 49
e 24 51
e 24 58
e 24 59
e 24 60
e 24 69
e 24 71
e 24 75
e 24 78
e 24 80
e 24 84
e 24 86
e 24 88
e 24 89
e 24 90
e 24 91
e 24 94
e 24 96
e 24 99
e 24 102
e 24 103
e 24 104
e 24 105
e 24 110
e 24 111
e 24 114
e 24 120
e 24 121
e 24 124
e 24 126
e 24 129
e 24 130
e 24 131
e 24 132
e 24 136
e 24 137
e 24 138
e 24 141
e 24 144
e 24 149
e 24 150
e 25 27
e 25 29
e 25 31
e 25 36
e 25 47
e 25 52
e 25 54
e 25 55
e 25 57
e 25 60
e 25 61
e 25 65
e 25 67
e 25 70
e 25 71
e 25 72
e 25 77
e 25 79
e 25 80
e 25 81
e 25 83
e 25 85
e 25 86
e 25 87
e 25 89
e 25 91
e 25 95
e 25 96
e 25 98
e 25 102
e 25 103
e 25 104
e 25 105
e 25 107
e 25 112
e 25 113
e 25 119
e 25 120
e 25 122
e 25 123
e 25 124
e 25 126
e 25 127
e 25 132
e 25 136
e 25 139
e 25 141
e 25 143
e 25 144
e 25 146
e 26 27
e 26 31
e 26 34
e 26 37
e 26 40
e 26 44
e 26 48
e 26 50
e 26 55
e 26 57
e 26 60
e 26 61
e 26 63
e 26 64
e 26 65
e 26 66
e 26 67
e 26 69
e 26 71
e 26 79
e 26 80
e 26 85
e 26 87
e 26 89
e 26 91
e 26 92
e 26 93
e 26 97
e 26 104
e 26 105
e 26 106
e 26 108
e 26 111
e 26 113
e 26 116
e 26 117
e 26 118
e 26 120
e 26 123
e 26 124
e 26 125
e 26 127
e 26 128
e 26 129
e 26 130
e 26 131
e 26 133
e 26 134
e 26 137
e 26 138
e 26 139
e 26 140
e 26 144
e 26 146
e 26 148
e 26 149
e 27 31
e 27 32
e 27 33
e 27 39
e 27 41
e 27 43
e 27 44
e 27 48
e 27 49
e 27 50
e 27 53
e 27 54
e 27 56
e 27 57
e 27 58
e 27 62
e 27 63
e 27 64
e 27 67
e 27 68
e 27 73
e 27 76
e 27 77
e 27 81
e 27 84
e 27 89
e 27 94
e 27 96
e 27 100
e 27 101
e 27 107
e 27 108
e 27 110
e 27 111
e 27 114
e 27 118
e 27 119
e 27 120
e 27 123
e 27 124
e 27 125
e 27 130
e 27 133
e 27 137
e 27 138
e 27 139
e 27 141
e 27 142
e 27 143
e 27 144
e 27 149
e 27 150
e 28 32
e 28 33
e 28 34
e 28 36
e 28 37
e 28 39
e 28 41
e 28 44
e 28 45
e 28 47
e 28 49
e 28 50
e 28 54
e 28 62
e 28 67
e 28 68
e 28 69
e 28 72
e 28 74
e 28 76
e 28 80
e 28 83
e 28 87
e 28 93
e 28 96
e 28 99
e 28 100
e 28 102
e 28 104
e 28 106
e 28 109
e 28 113
e 28 115
e 28 120
e 28 121
e 28 123
e 28 124
e 28 125
e 28 130
e 28 131
e 28 132
e 28 134
e 28 135
e 28 136
e 28 142
e 28 146
e 28 148
e 28 149
e 28 150
e 29 32
e 29 34
e 29 35
e 29 37
e 29 41
e 29 43
e 29 44
e 29 45
e 29 46
e 29 47
e 29 49
e 29 54
e 29 57
e 29 58
e 29 59
e 29 61
e 29 62
e 29 64
e 29 66
e 29 70
e 29 71
e 29 73
e 29 74
e 29 79
e 29 80
e 29 83
e 29 85
e 29 86
e 29 88
e 29 98
e 29 101
e 29 102
e 29 103
e 29 105
e 29 107
e 29 108
e 29 109
e 29 110
e 29 114
e 29 116
e 29 117
e 29 119
e 29 120
e 29 121
e 29 122
e 29 123
e 29 124
e 29 125
e 29 134
e 29 135
e 29 136
e 29 137
e 29 140
e 29 141
e 29 143
e 29 144
e 29 149
e 30 31
e 30 33
e 30 34
e 30 37
e 30 38
e 30 41
e 30 42
e 30 43
e 30 45
e 30 47
e 30 48
e 30 57
e 30 58
e 30 64
e 30 70
e 30 71
e 30 73
e 30 79
e 30 81
e 30 82
e 30 84
e 30 85
e 30 88
e 30 92
e 30 93
e 30 98
e 30 99
e 30 100
e 30 101
e 30 102
e 30 103
e 30 104
e 30 108
e 30 111
e 30 113
e 30 114
e 30 117
e 30 118
e 30 119
e 30 122
e 30 123
e 30 124
e 30 125
e 30 128
e 30 129
e 30 136
e 30 137
e 30 138
e 30 140
e 30 142
e 30 143
e 30 144
e 30 145
e 30 149
e 31 32
e 31 33
e 31 36
e 31 39
e 31 40
e 31 41
e 31 44
e 31 46
e 31 47
e 31 48
e 31 49
e 31 50
e 31 53
e 31 55
e 31 59
e 31 60
e 31 63
e 31 64
e 31 66
e 31 71
e 31 72
e 31 75
e 31 76
e 31 77
e 31 78
e 31 83
e 31 84
e 31 90
e 31 93
e 31 94
e 31 98
e 31 99
e 31 100
e 31 101
e 31 102
e 31 107
e 31 108
e 31 110
e 31 111
e 31 114
e 31 116
e 31 117
e 31 122
e 31 123
e 31 128
e 31 130
e 31 140
e 31 143
e 31 145
e 31 150
e 32 39
e 32 43
e 32 45
e 32 47
e 32 53
e 32 59
e 32 60
e 32 64
e 32 65
e 32 68
e 32 69
e 32 70
e 32 71
e 32 73
e 32 82
e 32 83
e 32 84
e 32 85
e 32 88
e 32 93
e 32 94
e 32 96
e 32 97
e 32 99
e 32 101
e 32 102
e 32 104
e 32 107
e 32 108
e 32 113
e 32 117
e 32 118
e 32 119
e 32 120
e 32 121
e 32 123
e 32 126
e 32 128
e 32 133
e 32 134
e 32 135
e 32 136
e 32 139
e 32 142
e 32 145
e 32 146
e 32 149
e 33 34
e 33 35
e 33 36
e 33 40
e 33 41
e 33 42
e 33 47
e 33 48
e 33 56
e 33 61
e 33 64
e 33 68
e 33 71
e 33 73
e 33 74
e 33 75
e 33 77
e 33 79
e 33 84
e 33 85
e 33 87
e 33 90
e 33 92
e 33 94
e 33 98
e 33 99
e 33 100
e 33 101
e 33 102
e 33 106
e 33 107
e 33 110
e 33 112
e 33 120
e 33 121
e 33 124
e 33 127
e 33 130
e 33 131
e 33 134
e 33 139
e 33 140
e 33 143
e 33 146
e 33 147
e 33 148
e 33 149
e 33 150
e 34 36
e 34 37
e 34 38
e 34 41
e 34 42
e 34 50
e 34 58
e 34 62
e 34 64
e 34 65
e 34 66
e 34 75
e 34 79
e 34 81
e 34 84
e 34 86
e 34 89
e 34 92
e 34 94
e 34 95
e 34 97
e 34 99
e 34 104
e 34 105
e 34 106
e 34 107
e 34 108
e 34 110
e 34 111
e 34 112
e 34 113
e 34 116
e 34 119
e 34 125
e 34 126
e 34 129
e 34 130
e 34 133
e 34 135
e 34 138
e 34 141
e 34 143
e 34 144
e 34 149
e 35 36
e 35 38
e 35 39
e 35 42
e 35 48
e 35 53
e 35 55
e 35 61
e 35 65
e 35 69
e 35 70
e 35 73
e 35 78
e 35 80
e 35 82
e 35 84
e 35 92
e 35 93
e 35 97
e 35 101
e 35 102
e 35 105
e 35 107
e 35 112
e 35 114
e 35 124
e 35 127
e 35 128
e 35 129
e 35 130
e 35 133
e 35 134
e 35 139
e 35 141
e 35 144
e 35 146
e 35 148
e 36 37
e 36 38
e 36 43
e 36 44
e 36 46
e 36 47
e 36 48
e 36 49
e 36 53
e 36 56
e 36 59
e 36 60
e 36 62
e 36 66
e 36 73
e 36 74
e 36 75
e 36 76
e 36 77
e 36 78
e 36 79
e 36 80
e 36 82
e 36 84
e 36 92
e 36 94
e 36 98
e 36 101
e 36 102
e 36 107
e 36 109
e 36 110
e 36 115
e 36 116
e 36 117
e 36 118
e 36 120
e 36 121
e 36 122
e 36 124
e 36 129
e 36 133
e 36 142
e 36 143
e 36 146
e 36 149
e 37 38
e 37 41
e 37 42
e 37 43
e 37 45
e 37 50
e 37 53
e 37 59
e 37 60
e 37 63
e 37 64
e 37 65
e 37 66
e 37 67
e 37 75
e 37 77
e 37 78
e 37 81
e 37 84
e 37 85
e 37 86
e 37 90
e 37 91
e 37 93
e 37 94
e 37 95
e 37 97
e 37 98
e 37 100
e 37 101
e 37 103
e 37 104
e 37 107
e 37 109
e 37 111
e 37 113
e 37 117
e 37 120
e 37 126
e 37 130
e 37 131
e 37 135
e 37 138
e 37 139
e 37 144
e 37 146
e 37 148
e 38 42
e 38 44
e 38 47
e 38 49
e 38 50
e 38 52
e 38 54
e 38 56
e 38 57
e 38 60
e 38 61
e 38 62
e 38 64
e 38 68
e 38 69
e 38 70
e 38 71
e 38 72
e 38 73
e 38 78
e 38 80
e 38 81
e 38 83
e 38 85
e 38 86
e 38 87
e 38 88
e 38 89
e 38 96
e 38 98
e 38 101
e 38 104
e 38 109
e 38 111
e 38 113
e 38 116
e 38 117
e 38 118
e 38 120
e 38 122
e 38 130
e 38 136
e 38 143
e 38 144
e 38 145
e 38 148
e 38 149
e 38 150
e 39 40
e 39 45
e 39 48
e 39 49
e 39 51
e 39 52
e 39 54
e 39 58
e 39 65
e 39 67
e 39 68
e 39 69
e 39 70
e 39 73
e 39 75
e 39 77
e 39 78
e 39 80
e 39 87
e 39 89
e 39 91
e 39 93
e 39 97
e 39 99
e 39 101
e 39 102
e 39 103
e 39 107
e 39 108
e 39 109
e 39 110
e 39 111
e 39 114
e 39 116
e 39 119
e 39 124
e 39 126
e 39 127
e 39 129
e 39 131
e 39 135
e 39 137
e 39 138
e 39 139
e 39 140
e 39 143
e 39 144
e 39 146
e 39 147
e 40 43
e 40 45
e 40 46
e 40 47
e 40 48
e 40 49
e 40 52
e 40 57
e 40 60
e 40 62
e 40 66
e 40 68
e 40 71
e 40 74
e 40 75
e 40 78
e 40 82
e 40 86
e 40 87
e 40 88
e 40 90
e 40 91
e 40 95
e 40 96
e 40 99
e 40 107
e 40 109
e 40 110
e 40 111
e 40 113
e 40 116
e 40 118
e 40 120
e 40 121
e 40 130
e 40 132
e 40 134
e 40 135
e 40 137
e 40 139
e 40 141
e 40 142
e 41 42
e 41 43
e 41 44
e 41 51
e 41 52
e 41 53
e 41 56
e 41 59
e 41 60
e 41 61
e 41 65
e 41 68
e 41 72
e 41 74
e 41 79
e 41 80
e 41 82
e 41 83
e 41 86
e 41 87
e 41 88
e 41 90
e 41 93
e 41 94
e 41 96
e 41 97
e 41 102
e 41 103
e 41 104
e 41 105
e 41 106
e 41 109
e 41 116
e 41 117
e 41 120
e 41 121
e 41 122
e 41 123
e 41 126
e 41 127
e 41 128
e 41 134
e 41 138
e 41 142
e 41 143
e 41 144
e 41 145
e 41 150
e 42 46
e 42 47
e 42 50
e 42 55
e 42 59
e 42 60
e 42 63
e 42 66
e 42 67
e 42 68
e 42 70
e 42 71
e 42 74
e 42 76
e 42 77
e 42 78
e 42 81
e 42 83
e 42 84
e 42 85
e 42 87
e 42 88
e 42 92
e 42 94
e 42 100
e 42 101
e 42 102
e 42 104
e 42 108
e 42 109
e 42 111
e 42 115
e 42 116
e 42 117
e 42 118
e 42 119
e 42 121
e 42 122
e 42 123
e 42 129
e 42 130
e 42 132
e 42 134
e 42 141
e 42 142
e 42 145
e 42 147
e 42 148
e 43 44
e 43 53
e 43 54
e 43 55
e 43 58
e 43 60
e 43 63
e 43 64
e 43 66
e 43 68
e 43 71
e 43 75
e 43 76
e 43 79
e 43 80
e 43 81
e 43 82
e 43 83
e 43 85
e 43 86
e 43 90
e 43 91
e 43 93
e 43 96
e 43 99
e 43 103
e 43 109
e 43 111
e 43 113
e 43 115
e 43 120
e 43 122
e 43 123
e 43 126
e 43 128
e 43 131
e 43 134
e 43 137
e 43 140
e 43 143
e 43 144
e 43 145
e 44 55
e 44 65
e 44 70
e 44 72
e 44 73
e 44 75
e 44 76
e 44 80
e 44 82
e 44 85
e 44 86
e 44 87
e 44 88
e 44 90
e 44 95
e 44 97
e 44 101
e 44 102
e 44 105
e 44 106
e 44 107
e 44 109
e 44 114
e 44 117
e 44 120
e 44 122
e 44 126
e 44 128
e 44 130
e 44 132
e 44 137
e 44 138
e 44 139
e 44 140
e 44 141
e 44 143
e 44 145
e 44 148
e 44 150
e 45 46
e 45 49
e 45 55
e 45 58
e 45 60
e 45 61
e 45 62
e 45 70
e 45 72
e 45 75
e 45 76
e 45 80
e 45 81
e 45 82
e 45 85
e 45 88
e 45 90
e 45 92
e 45 93
e 45 95
e 45 97
e 45 99
e 45 100
e 45 102
e 45 103
e 45 104
e 45 105
e 45 106
e 45 109
e 45 111
e 45 112
e 45 113
e 45 114
e 45 119
e 45 123
e 45 125
e 45 127
e 45 131
e 45 137
e 45 138
e 45 139
e 45 149
e 45 150
e 46 50
e 46 52
e 46 53
e 46 55
e 46 56
e 46 57
e 46 65
e 46 66
e 46 69
e 46 71
e 46 73
e 46 79
e 46 85
e 46 86
e 46 88
e 46 90
e 46 92
e 46 95
e 46 98
e 46 100
e 46 101
e 46 105
e 46 107
e 46 111
e 46 112
e 46 113
e 46 114
e 46 116
e 46 117
e 46 118
e 46 119
e 46 122
e 46 124
e 46 126
e 46 127
e 46 128
e 46 129
e 46 134
e 46 141
e 46 142
e 46 143
e 46 144
e 47 51
e 47 58
e 47 59
e 47 64
e 47 65
e 47 69
e 47 70
e 47 73
e 47 74
e 47 78
e 47 81
e 47 82
e 47 85
e 47 86
e 47 87
e 47 93
e 47 96
e 47 97
e 47 99
e 47 101
e 47 103
e 47 104
e 47 106
e 47 112
e 47 115
e 47 116
e 47 128
e 47 132
e 47 134
e 47 139
e 47 141
e 47 149
e 47 150
e 48 49
e 48 50
e 48 51
e 48 55
e 48 59
e 48 63
e 48 69
e 48 70
e 48 71
e 48 75
e 48 76
e 48 78
e 48 79
e 48 83
e 48 85
e 48 86
e 48 89
e 48 90
e 48 91
e 48 92
e 48 95
e 48 97
e 48 101
e 48 106
e 48 109
e 48 111
e 48 114
e 48 116
e 48 117
e 48 118
e 48 119
e 48 120
e 48 123
e 48 126
e 48 130
e 48 131
e 48 137
e 48 139
e 48 143
e 48 144
e 48 146
e 48 149
e 49 51
e 49 53
e 49 54
e 49 64
e 49 66
e 49 67
e 49 70
e 49 72
e 49 73
e 49 74
e 49 76
e 49 79
e 49 80
e 49 81
e 49 93
e 49 97
e 49 100
e 49 102
e 49 103
e 49 104
e 49 106
e 49 108
e 49 109
e 49 115
e 49 117
e 49 125
e 49 126
e 49 130
e 49 131
e 49 134
e 49 137
e 49 139
e 49 140
e 49 144
e 49 146
e 49 147
e 49 148
e 49 149
e 49 150
e 50 53
e 50 55
e 50 56
e 50 58
e 50 63
e 50 69
e 50 79
e 50 80
e 50 82
e 50 84
e 50 87
e 50 95
e 50 98
e 50 106
e 50 108
e 50 109
e 50 111
e 50 116
e 50 117
e 50 120
e 50 121
e 50 126
e 50 127
e 50 131
e 50 135
e 50 136
e 50 137
e 50 139
e 50 140
e 50 143
e 50 146
e 50 148
e 50 149
e 51 54
e 51 55
e 51 56
e 51 65
e 51 66
e 51 68
e 51 69
e 51 71
e 51 73
e 51 74
e 51 76
e 51 78
e 51 79
e 51 83
e 51 86
e 51 88
e 51 93
e 51 95
e 51 100
e 51 104
e 51 105
e 51 106
e 51 111
e 51 112
e 51 113
e 51 115
e 51 118
e 51 120
e 51 121
e 51 128
e 51 130
e 51 131
e 51 134
e 51 137
e 51 138
e 51 139
e 51 140
e 51 141
e 51 144
e 52 53
e 52 55
e 52 56
e 52 57
e 52 60
e 52 61
e 52 69
e 52 71
e 52 73
e 52 76
e 52 80
e 52 83
e 52 86
e 52 87
e 52 88
e 52 89
e 52 90
e 52 91
e 52 93
e 52 94
e 52 96
e 52 99
e 52 105
e 52 106
e 52 115
e 52 119
e 52 120
e 52 121
e 52 124
e 52 125
e 52 128
e 52 130
e 52 131
e 52 132
e 52 133
e 52 134
e 52 135
e 52 136
e 52 137
e 52 138
e 52 139
e 52 140
e 52 141
e 52 144
e 52 145
e 52 146
e 52 150
e 53 56
e 53 57
e 53 59
e 53 61
e 53 63
e 53 66
e 53 70
e 53 74
e 53 81
e 53 82
e 53 83
e 53 85
e 53 90
e 53 91
e 53 93
e 53 97
e 53 101
e 53 105
e 53 106
e 53 107
e 53 109
e 53 110
e 53 111
e 53 112
e 53 113
e 53 115
e 53 116
e 53 124
e 53 125
e 53 126
e 53 127
e 53 128
e 53 134
e 53 135
e 53 138
e 53 139
e 53 141
e 53 142
e 53 145
e 53 147
e 53 150
e 54 55
e 54 56
e 54 57
e 54 61
e 54 62
e 54 63
e 54 65
e 54 66
e 54 67
e 54 69
e 54 70
e 54 73
e 54 75
e 54 78
e 54 79
e 54 81
e 54 87
e 54 90
e 54 91
e 54 93
e 54 103
e 54 105
e 54 113
e 54 115
e 54 119
e 54 120
e 54 124
e 54 127
e 54 128
e 54 130
e 54 131
e 54 132
e 54 134
e 54 138
e 54 139
e 54 140
e 54 145
e 55 57
e 55 58
e 55 60
e 55 61
e 55 67
e 55 68
e 55 69
e 55 71
e 55 80
e 55 81
e 55 82
e 55 83
e 55 84
e 55 86
e 55 88
e 55 92
e 55 96
e 55 103
e 55 105
e 55 109
e 55 111
e 55 113
e 55 115
e 55 116
e 55 118
e 55 119
e 55 120
e 55 122
e 55 123
e 55 128
e 55 130
e 55 132
e 55 136
e 55 137
e 55 145
e 56 57
e 56 63
e 56 64
e 56 66
e 56 68
e 56 70
e 56 76
e 56 77
e 56 80
e 56 81
e 56 90
e 56 91
e 56 92
e 56 94
e 56 97
e 56 99
e 56 100
e 56 101
e 56 104
e 56 108
e 56 109
e 56 110
e 56 111
e 56 114
e 56 115
e 56 117
e 56 120
e 56 121
e 56 130
e 56 133
e 56 135
e 56 136
e 56 137
e 56 140
e 56 143
e 56 144
e 56 145
e 56 146
e 56 149
e 57 58
e 57 59
e 57 62
e 57 63
e 57 66
e 57 70
e 57 73
e 57 76
e 57 80
e 57 86
e 57 89
e 57 94
e 57 101
e 57 104
e 57 107
e 57 109
e 57 112
e 57 114
e 57 118
e 57 119
e 57 120
e 57 121
e 57 125
e 57 133
e 57 134
e 57 136
e 57 141
e 57 143
e 57 146
e 58 59
e 58 61
e 58 62
e 58 63
e 58 66
e 58 69
e 58 70
e 58 71
e 58 72
e 58 74
e 58 75
e 58 83
e 58 86
e 58 88
e 58 90
e 58 91
e 58 92
e 58 95
e 58 97
e 58 98
e 58 100
e 58 102
e 58 103
e 58 104
e 58 105
e 58 111
e 58 116
e 58 118
e 58 119
e 58 123
e 58 124
e 58 125
e 58 126
e 58 128
e 58 129
e 58 130
e 58 131
e 58 132
e 58 133
e 58 134
e 58 135
e 58 136
e 58 137
e 58 138
e 58 139
e 58 145
e 58 148
e 59 62
e 59 63
e 59 68
e 59 74
e 59 75
e 59 76
e 59 77
e 59 79
e 59 93
e 59 98
e 59 99
e 59 100
e 59 108
e 59 110
e 59 111
e 59 119
e 59 121
e 59 123
e 59 126
e 59 127
e 59 128
e 59 131
e 59 132
e 59 135
e 59 136
e 59 139
e 59 140
e 59 142
e 59 143
e 59 147
e 59 149
e 59 150
e 60 63
e 60 64
e 60 66
e 60 67
e 60 68
e 60 70
e 60 72
e 60 78
e 60 80
e 60 81
e 60 83
e 60 84
e 60 86
e 60 90
e 60 91
e 60 92
e 60 93
e 60 94
e 60 96
e 60 97
e 60 99
e 60 100
e 60 103
e 60 105
e 60 113
e 60 114
e 60 115
e 60 116
e 60 117
e 60 120
e 60 126
e 60 127
e 60 130
e 60 132
e 60 136
e 60 138
e 60 139
e 60 140
e 60 142
e 60 143
e 61 65
e 61 68
e 61 69
e 61 71
e 61 72
e 61 74
e 61 77
e 61 79
e 61 81
e 61 82
e 61 84
e 61 85
e 61 86
e 61 87
e 61 88
e 61 89
e 61 90
e 61 91
e 61 93
e 61 96
e 61 101
e 61 103
e 61 106
e 61 109
e 61 112
e 61 114
e 61 115
e 61 116
e 61 119
e 61 123
e 61 124
e 61 126
e 61 132
e 61 137
e 61 141
e 61 142
e 61 143
e 61 145
e 61 147
e 61 148
e 61 149
e 61 150
e 62 63
e 62 65
e 62 66
e 62 69
e 62 78
e 62 81
e 62 82
e 62 86
e 62 87
e 62 89
e 62 91
e 62 92
e 62 93
e 62 95
e 62 98
e 62 100
e 62 104
e 62 107
e 62 108
e 62 113
e 62 114
e 62 117
e 62 118
e 62 120
e 62 121
e 62 122
e 62 124
e 62 126
e 62 129
e 62 136
e 62 137
e 62 139
e 62 141
e 62 142
e 62 143
e 62 146
e 62 148
e 63 64
e 63 69
e 63 70
e 63 73
e 63 75
e 63 76
e 63 77
e 63 78
e 63 79
e 63 81
e 63 82
e 63 83
e 63 84
e 63 85
e 63 93
e 63 97
e 63 98
e 63 99
e 63 101
e 63 104
e 63 105
e 63 106
e 63 107
e 63 110
e 63 111
e 63 113
e 63 115
e 63 118
e 63 121
e 63 122
e 63 123
e 63 124
e 63 125
e 63 126
e 63 127
e 63 129
e 63 130
e 63 133
e 63 139
e 63 142
e 63 143
e 63 146
e 63 150
e 64 65
e 64 66
e 64 70
e 64 72
e 64 76
e 64 79
e 64 82
e 64 83
e 64 87
e 64 90
e 64 93
e 64 94
e 64 95
e 64 96
e 64 98
e 64 100
e 64 101
e 64 104
e 64 105
e 64 106
e 64 113
e 64 115
e 64 118
e 64 121
e 64 122
e 64 125
e 64 127
e 64 132
e 64 141
e 64 142
e 64 144
e 64 146
e 64 147
e 64 150
e 65 66
e 65 69
e 65 71
e 65 75
e 65 76
e 65 81
e 65 85
e 65 86
e 65 89
e 65 90
e 65 93
e 65 95
e 65 98
e 65 101
e 65 108
e 65 110
e 65 116
e 65 120
e 65 121
e 65 122
e 65 123
e 65 125
e 65 127
e 65 128
e 65 132
e 65 133
e 65 135
e 65 138
e 65 140
e 65 144
e 65 145
e 65 148
e 65 149
e 66 67
e 66 72
e 66 77
e 66 81
e 66 83
e 66 85
e 66 86
e 66 93
e 66 97
e 66 98
e 66 99
e 66 103
e 66 109
e 66 113
e 66 116
e 66 120
e 66 122
e 66 123
e 66 124
e 66 125
e 66 126
e 66 130
e 66 135
e 66 137
e 66 142
e 66 143
e 66 146
e 66 147
e 66 149
e 67 69
e 67 70
e 67 71
e 67 75
e 67 78
e 67 79
e 67 80
e 67 81
e 67 83
e 67 86
e 67 87
e 67 90
e 67 93
e 67 94
e 67 96
e 67 97
e 67 99
e 67 100
e 67 104
e 67 105
e 67 106
e 67 108
e 67 111
e 67 112
e 67 119
e 67 126
e 67 127
e 67 128
e 67 129
e 67 130
e 67 131
e 67 136
e 67 142
e 67 143
e 67 144
e 67 146
e 67 147
e 67 148
e 67 149
e 68 69
e 68 71
e 68 73
e 68 81
e 68 83
e 68 85
e 68 86
e 68 87
e 68 89
e 68 92
e 68 95
e 68 96
e 68 98
e 68 99
e 68 100
e 68 101
e 68 102
e 68 104
e 68 106
e 68 108
e 68 113
e 68 116
e 68 117
e 68 118
e 68 119
e 68 122
e 68 127
e 68 131
e 68 133
e 68 139
e 68 144
e 68 145
e 68 146
e 68 148
e 69 70
e 69 71
e 69 73
e 69 76
e 69 79
e 69 80
e 69 85
e 69 86
e 69 87
e 69 88
e 69 89
e 69 90
e 69 91
e 69 92
e 69 93
e 69 96
e 69 98
e 69 100
e 69 102
e 69 103
e 69 107
e 69 109
e 69 111
e 69 112
e 69 114
e 69 115
e 69 116
e 69 117
e 69 119
e 69 120
e 69 122
e 69 128
e 69 137
e 69 139
e 69 141
e 69 142
e 69 148
e 69 149
e 70 77
e 70 78
e 70 87
e 70 88
e 70 89
e 70 107
e 70 109
e 70 112
e 70 115
e 70 117
e 70 118
e 70 121
e 70 123
e 70 126
e 70 127
e 70 129
e 70 130
e 70 131
e 70 132
e 70 133
e 70 134
e 70 135
e 70 136
e 70 139
e 70 140
e 70 146
e 70 148
e 70 149
e 71 74
e 71 76
e 71 80
e 71 84
e 71 90
e 71 93
e 71 94
e 71 98
e 71 100
e 71 102
e 71 103
e 71 106
e 71 107
e 71 110
e 71 111
e 71 113
e 71 122
e 71 124
e 71 127
e 71 130
e 71 137
e 71 138
e 71 141
e 71 142
e 71 143
e 71 148
e 72 76
e 72 79
e 72 80
e 72 82
e 72 86
e 72 88
e 72 98
e 72 99
e 72 100
e 72 103
e 72 104
e 72 110
e 72 111
e 72 112
e 72 114
e 72 119
e 72 120
e 72 123
e 72 124
e 72 128
e 72 131
e 72 132
e 72 136
e 72 138
e 72 146
e 72 149
e 73 76
e 73 77
e 73 79
e 73 80
e 73 81
e 73 82
e 73 85
e 73 87
e 73 94
e 73 95
e 73 97
e 73 99
e 73 100
e 73 101
e 73 105
e 73 107
e 73 109
e 73 113
e 73 114
e 73 117
e 73 120
e 73 122
e 73 124
e 73 125
e 73 126
e 73 129
e 73 134
e 73 136
e 73 145
e 73 148
e 74 80
e 74 81
e 74 85
e 74 87
e 74 88
e 74 89
e 74 99
e 74 101
e 74 103
e 74 104
e 74 108
e 74 110
e 74 112
e 74 116
e 74 117
e 74 121
e 74 123
e 74 130
e 74 131
e 74 132
e 74 135
e 74 143
e 74 145
e 74 147
e 74 150
e 75 76
e 75 78
e 75 79
e 75 82
e 75 88
e 75 91
e 75 93
e 75 96
e 75 97
e 75 98
e 75 99
e 75 103
e 75 105
e 75 110
e 75 111
e 75 114
e 75 118
e 75 120
e 75 121
e 75 128
e 75 130
e 75 131
e 75 138
e 75 139
e 75 148
e 75 150
e 76 77
e 76 78
e 76 85
e 76 89
e 76 90
e 76 92
e 76 94
e 76 97
e 76 100
e 76 101
e 76 102
e 76 104
e 76 105
e 76 106
e 76 109
e 76 113
e 76 117
e 76 118
e 76 121
e 76 124
e 76 129
e 76 130
e 76 135
e 76 137
e 76 138
e 76 142
e 76 143
e 76 145
e 76 146
e 76 149
e 77 81
e 77 84
e 77 88
e 77 90
e 77 97
e 77 100
e 77 102
e 77 104
e 77 105
e 77 107
e 77 109
e 77 110
e 77 113
e 77 117
e 77 119
e 77 120
e 77 125
e 77 127
e 77 129
e 77 132
e 77 139
e 77 142
e 78 79
e 78 80
e 78 81
e 78 90
e 78 102
e 78 106
e 78 107
e 78 109
e 78 110
e 78 113
e 78 114
e 78 115
e 78 122
e 78 130
e 78 131
e 78 132
e 78 135
e 78 141
e 78 147
e 78 150
e 79 80
e 79 85
e 79 87
e 79 89
e 79 98
e 79 99
e 79 100
e 79 101
e 79 103
e 79 106
e 79 107
e 79 108
e 79 110
e 79 114
e 79 118
e 79 120
e 79 122
e 79 125
e 79 128
e 79 130
e 79 133
e 79 136
e 79 137
e 79 141
e 79 142
e 79 143
e 79 145
e 80 81
e 80 82
e 80 85
e 80 86
e 80 88
e 80 96
e 80 97
e 80 98
e 80 104
e 80 105
e 80 106
e 80 109
e 80 110
e 80 111
e 80 113
e 80 118
e 80 119
e 80 123
e 80 125
e 80 126
e 80 127
e 80 128
e 80 129
e 80 135
e 80 137
e 80 140
e 80 141
e 80 142
e 80 146
e 80 148
e 81 82
e 81 86
e 81 88
e 81 96
e 81 98
e 81 99
e 81 101
e 81 103
e 81 104
e 81 109
e 81 110
e 81 112
e 81 113
e 81 117
e 81 125
e 81 126
e 81 128
e 81 130
e 81 131
e 81 132
e 81 137
e 81 138
e 81 140
e 81 142
e 81 148
e 82 85
e 82 86
e 82 87
e 82 89
e 82 91
e 82 95
e 82 96
e 82 99
e 82 103
e 82 110
e 82 112
e 82 116
e 82 121
e 82 124
e 82 127
e 82 129
e 82 130
e 82 131
e 82 133
e 82 141
e 82 142
e 82 143
e 82 145
e 82 147
e 82 148
e 82 149
e 83 86
e 83 87
e 83 88
e 83 90
e 83 92
e 83 94
e 83 95
e 83 98
e 83 103
e 83 109
e 83 113
e 83 121
e 83 122
e 83 130
e 83 131
e 83 138
e 83 139
e 83 141
e 83 142
e 83 143
e 83 144
e 83 145
e 83 147
e 83 148
e 84 85
e 84 86
e 84 87
e 84 90
e 84 93
e 84 94
e 84 95
e 84 98
e 84 100
e 84 101
e 84 105
e 84 107
e 84 108
e 84 120
e 84 121
e 84 122
e 84 126
e 84 127
e 84 128
e 84 130
e 84 132
e 84 133
e 84 135
e 84 136
e 84 137
e 84 140
e 84 141
e 84 143
e 84 147
e 84 148
e 85 95
e 85 97
e 85 99
e 85 100
e 85 103
e 85 104
e 85 105
e 85 107
e 85 109
e 85 111
e 85 113
e 85 114
e 85 115
e 85 119
e 85 129
e 85 135
e 85 136
e 85 137
e 85 142
e 85 143
e 85 145
e 85 147
e 85 149
e 86 87
e 86 88
e 86 90
e 86 91
e 86 93
e 86 97
e 86 99
e 86 103
e 86 105
e 86 106
e 86 109
e 86 111
e 86 112
e 86 113
e 86 128
e 86 130
e 86 131
e 86 137
e 86 138
e 86 140
e 86 142
e 86 146
e 86 147
e 86 149
e 86 150
e 87 91
e 87 94
e 87 95
e 87 97
e 87 102
e 87 103
e 87 109
e 87 110
e 87 112
e 87 115
e 87 116
e 87 119
e 87 122
e 87 125
e 87 127
e 87 128
e 87 129
e 87 130
e 87 133
e 87 135
e 87 137
e 87 138
e 87 141
e 87 145
e 87 146
e 87 149
e 88 91
e 88 92
e 88 94
e 88 98
e 88 99
e 88 100
e 88 101
e 88 108
e 88 109
e 88 111
e 88 112
e 88 114
e 88 116
e 88 117
e 88 120
e 88 123
e 88 124
e 88 130
e 88 135
e 88 139
e 88 140
e 88 141
e 88 143
e 88 144
e 88 145
e 88 147
e 88 149
e 89 90
e 89 91
e 89 92
e 89 94
e 89 99
e 89 101
e 89 104
e 89 106
e 89 111
e 89 112
e 89 113
e 89 114
e 89 117
e 89 120
e 89 124
e 89 125
e 89 129
e 89 131
e 89 134
e 89 136
e 89 138
e 89 139
e 89 140
e 89 141
e 89 142
e 89 145
e 89 146
e 89 148
e 89 149
e 89 150
e 90 91
e 90 92
e 90 93
e 90 94
e 90 95
e 90 99
e 90 102
e 90 104
e 90 106
e 90 108
e 90 109
e 90 111
e 90 112
e 90 114
e 90 115
e 90 117
e 90 118
e 90 119
e 90 120
e 90 123
e 90 126
e 90 131
e 90 132
e 90 136
e 90 138
e 90 139
e 90 144
e 90 149
e 91 93
e 91 96
e 91 101
e 91 106
e 91 108
e 91 110
e 91 111
e 91 116
e 91 118
e 91 119
e 91 121
e 91 123
e 91 125
e 91 129
e 91 130
e 91 131
e 91 132
e 91 133
e 91 135
e 91 136
e 91 141
e 91 145
e 91 146
e 91 150
e 92 94
e 92 98
e 92 99
e 92 101
e 92 104
e 92 107
e 92 112
e 92 113
e 92 114
e 92 115
e 92 121
e 92 124
e 92 125
e 92 131
e 92 132
e 92 136
e 92 139
e 92 141
e 92 142
e 92 145
e 92 147
e 92 148
e 93 96
e 93 97
e 93 98
e 93 100
e 93 101
e 93 105
e 93 107
e 93 108
e 93 109
e 93 111
e 93 112
e 93 114
e 93 119
e 93 120
e 93 121
e 93 122
e 93 123
e 93 124
e 93 126
e 93 129
e 93 131
e 93 132
e 93 133
e 93 136
e 93 140
e 93 141
e 93 143
e 93 147
e 94 95
e 94 99
e 94 102
e 94 103
e 94 106
e 94 107
e 94 111
e 94 112
e 94 115
e 94 116
e 94 117
e 94 120
e 94 122
e 94 123
e 94 126
e 94 128
e 94 132
e 94 137
e 94 139
e 94 143
e 94 145
e 94 146
e 94 147
e 94 148
e 94 149
e 95 96
e 95 98
e 95 101
e 95 105
e 95 106
e 95 116
e 95 119
e 95 126
e 95 128
e 95 130
e 95 134
e 95 135
e 95 137
e 95 138
e 95 139
e 95 141
e 95 142
e 95 143
e 95 144
e 95 146
e 95 149
e 95 150
e 96 101
e 96 106
e 96 108
e 96 109
e 96 111
e 96 112
e 96 117
e 96 118
e 96 125
e 96 127
e 96 129
e 96 131
e 96 134
e 96 138
e 96 143
e 96 144
e 96 145
e 96 147
e 96 148
e 96 149
e 96 150
e 97 98
e 97 99
e 97 100
e 97 102
e 97 104
e 97 105
e 97 106
e 97 109
e 97 112
e 97 115
e 97 120
e 97 126
e 97 128
e 97 130
e 97 132
e 97 134
e 97 135
e 97 137
e 97 142
e 97 146
e 97 148
e 97 149
e 97 150
e 98 100
e 98 106
e 98 111
e 98 114
e 98 121
e 98 123
e 98 125
e 98 127
e 98 128
e 98 130
e 98 134
e 98 135
e 98 136
e 98 137
e 98 139
e 98 147
e 99 101
e 99 105
e 99 106
e 99 108
e 99 109
e 99 112
e 99 113
e 99 114
e 99 115
e 99 119
e 99 121
e 99 127
e 99 133
e 99 136
e 99 138
e 99 139
e 99 140
e 99 141
e 99 144
e 99 146
e 99 150
e 100 103
e 100 104
e 100 105
e 100 106
e 100 109
e 100 110
e 100 111
e 100 114
e 100 118
e 100 123
e 100 125
e 100 126
e 100 127
e 100 130
e 100 134
e 100 137
e 100 138
e 100 142
e 100 143
e 100 144
e 100 147
e 100 150
e 101 102
e 101 104
e 101 107
e 101 110
e 101 111
e 101 116
e 101 119
e 101 120
e 101 122
e 101 128
e 101 129
e 101 131
e 101 136
e 101 137
e 101 141
e 101 143
e 101 148
e 101 149
e 101 150
e 102 108
e 102 109
e 102 114
e 102 115
e 102 116
e 102 118
e 102 119
e 102 121
e 102 122
e 102 124
e 102 125
e 102 126
e 102 127
e 102 133
e 102 135
e 102 136
e 102 140
e 102 144
e 102 145
e 102 147
e 102 148
e 102 149
e 103 105
e 103 106
e 103 108
e 103 110
e 103 113
e 103 115
e 103 116
e 103 117
e 103 119
e 103 124
e 103 125
e 103 126
e 103 127
e 103 129
e 103 133
e 103 135
e 103 136
e 103 137
e 103 138
e 103 140
e 103 144
e 103 145
e 103 149
e 103 150
e 104 105
e 104 108
e 104 109
e 104 110
e 104 113
e 104 118
e 104 119
e 104 121
e 104 124
e 104 125
e 104 129
e 104 130
e 104 134
e 104 135
e 104 136
e 104 137
e 104 140
e 104 142
e 104 144
e 104 150
e 105 107
e 105 110
e 105 116
e 105 121
e 105 123
e 105 124
e 105 125
e 105 126
e 105 129
e 105 130
e 105 133
e 105 136
e 105 139
e 105 142
e 105 143
e 105 145
e 105 146
e 105 147
e 105 148
e 106 107
e 106 110
e 106 111
e 106 113
e 106 116
e 106 117
e 106 119
e 106 122
e 106 128
e 106 129
e 106 130
e 106 136
e 106 137
e 106 142
e 106 144
e 106 147
e 106 148
e 107 112
e 107 116
e 107 117
e 107 124
e 107 126
e 107 127
e 107 136
e 107 142
e 107 145
e 107 146
e 107 148
e 107 149
e 108 112
e 108 113
e 108 118
e 108 119
e 108 121
e 108 123
e 108 131
e 108 134
e 108 135
e 108 136
e 108 140
e 108 141
e 108 147
e 108 150
e 109 113
e 109 116
e 109 118
e 109 124
e 109 125
e 109 133
e 109 139
e 109 140
e 109 141
e 109 145
e 110 112
e 110 113
e 110 114
e 110 115
e 110 117
e 110 118
e 110 122
e 110 124
e 110 125
e 110 127
e 110 134
e 110 136
e 110 137
e 110 140
e 110 143
e 110 145
e 110 147
e 110 150
e 111 116
e 111 117
e 111 119
e 111 120
e 111 124
e 111 125
e 111 126
e 111 130
e 111 138
e 111 139
e 111 148
e 111 150
e 112 114
e 112 115
e 112 121
e 112 124
e 112 125
e 112 127
e 112 128
e 112 134
e 112 135
e 112 143
e 112 148
e 112 149
e 112 150
e 113 116
e 113 118
e 113 119
e 113 122
e 113 126
e 113 130
e 113 133
e 113 135
e 113 136
e 113 137
e 113 139
e 113 141
e 113 143
e 113 146
e 113 147
e 113 148
e 114 115
e 114 118
e 114 119
e 114 122
e 114 123
e 114 126
e 114 127
e 114 135
e 114 136
e 114 137
e 114 141
e 114 143
e 114 144
e 114 147
e 114 148
e 115 116
e 115 119
e 115 124
e 115 125
e 115 127
e 115 130
e 115 131
e 115 132
e 115 133
e 115 135
e 115 142
e 115 143
e 115 144
e 115 145
e 115 146
e 115 147
e 115 150
e 116 117
e 116 118
e 116 120
e 116 122
e 116 123
e 116 125
e 116 126
e 116 127
e 116 130
e 116 133
e 116 135
e 116 140
e 116 142
e 116 146
e 116 147
e 116 148
e 117 118
e 117 119
e 117 123
e 117 129
e 117 130
e 117 134
e 117 137
e 117 140
e 117 144
e 117 145
e 117 146
e 117 147
e 117 150
e 118 122
e 118 123
e 118 125
e 118 135
e 118 136
e 118 137
e 118 138
e 118 139
e 118 144
e 118 145
e 118 150
e 119 120
e 119 121
e 119 122
e 119 126
e 119 128
e 119 129
e 119 141
e 119 143
e 119 147
e 119 149
e 119 150
e 120 121
e 120 122
e 120 126
e 120 129
e 120 133
e 120 134
e 120 136
e 120 138
e 120 145
e 120 147
e 120 148
e 120 149
e 120 150
e 121 124
e 121 125
e 121 126
e 121 128
e 121 131
e 121 132
e 121 133
e 121 136
e 121 141
e 121 144
e 121 145
e 121 150
e 122 124
e 122 128
e 122 129
e 122 136
e 122 138
e 122 139
e 122 140
e 122 148
e 123 125
e 123 127
e 123 131
e 123 134
e 123 139
e 123 142
e 123 145
e 123 146
e 123 149
e 123 150
e 124 126
e 124 127
e 124 128
e 124 129
e 124 131
e 124 132
e 124 133
e 124 137
e 124 146
e 124 147
e 124 148
e 124 150
e 125 130
e 125 131
e 125 132
e 125 133
e 125 134
e 125 136
e 125 137
e 125 140
e 125 143
e 125 147
e 125 148
e 125 149
e 125 150
e 126 128
e 126 130
e 126 134
e 126 136
e 126 140
e 126 143
e 126 146
e 126 147
e 126 148
e 126 149
e 126 150
e 127 128
e 127 129
e 127 135
e 127 139
e 127 140
e 127 145
e 127 147
e 127 149
e 128 129
e 128 130
e 128 131
e 128 133
e 128 134
e 128 137
e 128 143
e 128 146
e 129 134
e 129 135
e 129 148
e 129 149
e 130 132
e 130 136
e 130 137
e 130 148
e 130 149
e 131 134
e 131 135
e 131 138
e 131 145
e 131 147
e 131 148
e 131 150
e 132 133
e 132 138
e 132 139
e 132 142
e 132 143
e 132 148
e 132 149
e 132 150
e 133 135
e 133 136
e 133 141
e 133 145
e 133 149
e 133 150
e 134 140
e 134 141
e 134 142
e 134 144
e 134 145
e 134 146
e 134 148
e 134 150
e 135 136
e 135 137
e 135 138
e 135 140
e 135 142
e 135 143
e 135 146
e 135 147
e 136 137
e 136 138
e 136 141
e 136 146
e 136 147
e 136 149
e 137 138
e 137 139
e 137 140
e 138 139
e 138 142
e 138 144
e 138 147
e 139 140
e 139 143
e 139 144
e 139 149
e 139 150
e 140 143
e 140 144
e 140 147
e 140 148
e 140 149
e 141 143
e 141 144
e 141 145
e 141 146
e 141 147
e 141 149
e 142 143
e 142 144
e 142 145
e 143 144
e 143 145
e 144 149
e 144 150
e 145 148
e 146 147
e 146 148
e 147 150
e 148 149
e 148 150
